problems/csplib-prob056/sonet-models/00_compact/O2/minion/model_1-sonet-30-22-22-9180-solution000001.solution
language Essence 1.3

letting network be
        mset({}, {1, 2, 3, 4, 5, 6, 7, 8, 9, 11, 12, 13, 14, 16, 17, 18, 19, 20, 21, 26, 27, 30},
             {1, 2, 3, 4, 5, 6, 8, 9, 10, 11, 13, 15, 17, 18, 19, 22, 23, 24, 25, 26, 28, 29},
             {20, 21, 22, 23, 24, 25, 27, 28, 29, 30}, {26}, {26, 29}, {26, 30}, {27}, {27, 28}, {27, 28, 29},
             {27, 28, 29, 30}, {27, 28, 30}, {27, 29}, {27, 29, 30}, {27, 30}, {28}, {28, 29}, {28, 29, 30}, {28, 30},
             {29}, {29, 30}, {30})
$ Visualisation for network
$ 
$  1  2  3  4  5  6  7  8  9 11 12 13 14 16 17 18 19 20 21 26 27 30
$  1  2  3  4  5  6  8  9 10 11 13 15 17 18 19 22 23 24 25 26 28 29
$ 20 21 22 23 24 25 27 28 29 30
$ 26
$ 26 29
$ 26 30
$ 27
$ 27 28
$ 27 28 29
$ 27 28 29 30
$ 27 28 30
$ 27 29
$ 27 29 30
$ 27 30
$ 28
$ 28 29
$ 28 29 30
$ 28 30
$ 29
$ 29 30
$ 30

