problems/csplib-prob056/sonet-models/compact/O2/minion/model_1-sonet-30-22-22-9180-solution000001.eprime-solution
language ESSENCE' 1.0

letting network_ExplicitWithFlagsR2_Flags be
        [1, 1, 1, 1, 1, 1, 1, 1, 1, 1, 1, 1, 1, 1, 1, 1, 1, 1, 1, 1, 1, 1; int(1..22)]
letting network_ExplicitWithFlagsR2_Values_Occurrence be
        [[false, false, false, false, false, false, false, false, false, false, false, false, false, false, false,
          false, false, false, false, false, false, false, false, false, false, false, false, false, false, false;
              int(1..30)],
         [false, false, false, false, false, false, false, false, false, false, false, false, false, false, false,
          false, false, false, false, false, false, false, false, false, false, false, false, false, false, true;
              int(1..30)],
         [false, false, false, false, false, false, false, false, false, false, false, false, false, false, false,
          false, false, false, false, false, false, false, false, false, false, false, false, false, true, false;
              int(1..30)],
         [false, false, false, false, false, false, false, false, false, false, false, false, false, false, false,
          false, false, false, false, false, false, false, false, false, false, false, false, false, true, true;
              int(1..30)],
         [false, false, false, false, false, false, false, false, false, false, false, false, false, false, false,
          false, false, false, false, false, false, false, false, false, false, false, false, true, false, false;
              int(1..30)],
         [false, false, false, false, false, false, false, false, false, false, false, false, false, false, false,
          false, false, false, false, false, false, false, false, false, false, false, false, true, false, true;
              int(1..30)],
         [false, false, false, false, false, false, false, false, false, false, false, false, false, false, false,
          false, false, false, false, false, false, false, false, false, false, false, false, true, true, false;
              int(1..30)],
         [false, false, false, false, false, false, false, false, false, false, false, false, false, false, false,
          false, false, false, false, false, false, false, false, false, false, false, false, true, true, true;
              int(1..30)],
         [false, false, false, false, false, false, false, false, false, false, false, false, false, false, false,
          false, false, false, false, false, false, false, false, false, false, false, true, false, false, false;
              int(1..30)],
         [false, false, false, false, false, false, false, false, false, false, false, false, false, false, false,
          false, false, false, false, false, false, false, false, false, false, false, true, false, false, true;
              int(1..30)],
         [false, false, false, false, false, false, false, false, false, false, false, false, false, false, false,
          false, false, false, false, false, false, false, false, false, false, false, true, false, true, false;
              int(1..30)],
         [false, false, false, false, false, false, false, false, false, false, false, false, false, false, false,
          false, false, false, false, false, false, false, false, false, false, false, true, false, true, true;
              int(1..30)],
         [false, false, false, false, false, false, false, false, false, false, false, false, false, false, false,
          false, false, false, false, false, false, false, false, false, false, false, true, true, false, false;
              int(1..30)],
         [false, false, false, false, false, false, false, false, false, false, false, false, false, false, false,
          false, false, false, false, false, false, false, false, false, false, false, true, true, false, true;
              int(1..30)],
         [false, false, false, false, false, false, false, false, false, false, false, false, false, false, false,
          false, false, false, false, false, false, false, false, false, false, false, true, true, true, false;
              int(1..30)],
         [false, false, false, false, false, false, false, false, false, false, false, false, false, false, false,
          false, false, false, false, false, false, false, false, false, false, false, true, true, true, true;
              int(1..30)],
         [false, false, false, false, false, false, false, false, false, false, false, false, false, false, false,
          false, false, false, false, false, false, false, false, false, false, true, false, false, false, false;
              int(1..30)],
         [false, false, false, false, false, false, false, false, false, false, false, false, false, false, false,
          false, false, false, false, false, false, false, false, false, false, true, false, false, false, true;
              int(1..30)],
         [false, false, false, false, false, false, false, false, false, false, false, false, false, false, false,
          false, false, false, false, false, false, false, false, false, false, true, false, false, true, false;
              int(1..30)],
         [false, false, false, false, false, false, false, false, false, false, false, false, false, false, false,
          false, false, false, false, true, true, true, true, true, true, false, true, true, true, true;
              int(1..30)],
         [true, true, true, true, true, true, false, true, true, true, true, false, true, false, true, false, true,
          true, true, false, false, true, true, true, true, true, false, true, true, false;
              int(1..30)],
         [true, true, true, true, true, true, true, true, true, false, true, true, true, true, false, true, true, true,
          true, true, true, false, false, false, false, true, true, false, false, true;
              int(1..30)];
             int(1..22)]
$ Visualisation for network_ExplicitWithFlagsR2_Values_Occurrence
$ _ _ _ _ _ _ _ _ _ _ _ _ _ _ _ _ _ _ _ _ _ _ _ _ _ _ _ _ _ _
$ _ _ _ _ _ _ _ _ _ _ _ _ _ _ _ _ _ _ _ _ _ _ _ _ _ _ _ _ _ T
$ _ _ _ _ _ _ _ _ _ _ _ _ _ _ _ _ _ _ _ _ _ _ _ _ _ _ _ _ T _
$ _ _ _ _ _ _ _ _ _ _ _ _ _ _ _ _ _ _ _ _ _ _ _ _ _ _ _ _ T T
$ _ _ _ _ _ _ _ _ _ _ _ _ _ _ _ _ _ _ _ _ _ _ _ _ _ _ _ T _ _
$ _ _ _ _ _ _ _ _ _ _ _ _ _ _ _ _ _ _ _ _ _ _ _ _ _ _ _ T _ T
$ _ _ _ _ _ _ _ _ _ _ _ _ _ _ _ _ _ _ _ _ _ _ _ _ _ _ _ T T _
$ _ _ _ _ _ _ _ _ _ _ _ _ _ _ _ _ _ _ _ _ _ _ _ _ _ _ _ T T T
$ _ _ _ _ _ _ _ _ _ _ _ _ _ _ _ _ _ _ _ _ _ _ _ _ _ _ T _ _ _
$ _ _ _ _ _ _ _ _ _ _ _ _ _ _ _ _ _ _ _ _ _ _ _ _ _ _ T _ _ T
$ _ _ _ _ _ _ _ _ _ _ _ _ _ _ _ _ _ _ _ _ _ _ _ _ _ _ T _ T _
$ _ _ _ _ _ _ _ _ _ _ _ _ _ _ _ _ _ _ _ _ _ _ _ _ _ _ T _ T T
$ _ _ _ _ _ _ _ _ _ _ _ _ _ _ _ _ _ _ _ _ _ _ _ _ _ _ T T _ _
$ _ _ _ _ _ _ _ _ _ _ _ _ _ _ _ _ _ _ _ _ _ _ _ _ _ _ T T _ T
$ _ _ _ _ _ _ _ _ _ _ _ _ _ _ _ _ _ _ _ _ _ _ _ _ _ _ T T T _
$ _ _ _ _ _ _ _ _ _ _ _ _ _ _ _ _ _ _ _ _ _ _ _ _ _ _ T T T T
$ _ _ _ _ _ _ _ _ _ _ _ _ _ _ _ _ _ _ _ _ _ _ _ _ _ T _ _ _ _
$ _ _ _ _ _ _ _ _ _ _ _ _ _ _ _ _ _ _ _ _ _ _ _ _ _ T _ _ _ T
$ _ _ _ _ _ _ _ _ _ _ _ _ _ _ _ _ _ _ _ _ _ _ _ _ _ T _ _ T _
$ _ _ _ _ _ _ _ _ _ _ _ _ _ _ _ _ _ _ _ T T T T T T _ T T T T
$ T T T T T T _ T T T T _ T _ T _ T T T _ _ T T T T T _ T T _
$ T T T T T T T T T _ T T T T _ T T T T T T _ _ _ _ T T _ _ T

